
;this file is automatically generated: Thu Nov 05 10:55:22 CST 2020

;declarations generated

(declare-fun k4a292b33_ace8_48de_9e0a_d7553e6e9b2f () Int)
(declare-fun type_d4a48585_41d8_4d23_8b0f_f208a68e162a_University ( Int) Bool)
(declare-fun oclExcludes ( Int Int) Bool)
(declare-fun k11adda53_f4b3_400b_a84d_0d7190faa65d () Int)
(declare-fun Cardinality ( Int) Int)
(declare-fun student_year ( Int) Int)
(declare-fun type_d4a48585_41d8_4d23_8b0f_f208a68e162a_Student ( Int) Bool)
(declare-fun type_d4a48585_41d8_4d23_8b0f_f208a68e162a_Person ( Int) Bool)
(declare-fun oclSelect ( Int Bool) Int)
(declare-fun type_d4a48585_41d8_4d23_8b0f_f208a68e162a_Department ( Int) Bool)
(declare-fun module_year ( Int) Int)
(declare-fun obj_1b808d12_6b88_4a03_83a8_83e376249b31 ( Int) Int)
(declare-fun rel_48c6e9f7_be62_4f46_835f_15be9efa9818_study ( Int Int) Bool)
(declare-fun container_ ( Int) Int)
(declare-fun oclIncludes ( Int Int) Bool)
(declare-fun type_d4a48585_41d8_4d23_8b0f_f208a68e162a_Module ( Int) Bool)
(declare-fun ObjAt ( Int Int) Int)

;formula(s) generated
(assert (forall ((x Int)(y Int)) (=> (and ( rel_48c6e9f7_be62_4f46_835f_15be9efa9818_study ( obj_1b808d12_6b88_4a03_83a8_83e376249b31 x )   ( obj_1b808d12_6b88_4a03_83a8_83e376249b31 y )  )  (and (and ( type_d4a48585_41d8_4d23_8b0f_f208a68e162a_Student x )  ( type_d4a48585_41d8_4d23_8b0f_f208a68e162a_Person x ) ) ( type_d4a48585_41d8_4d23_8b0f_f208a68e162a_Module y ) )) (or (or (or (= (* ( Cardinality ( container_ x )  )  0) (* ( Cardinality ( container_ y )  )  1)) (and (= (* ( Cardinality ( container_ y )  )  1) (* ( Cardinality ( container_ x )  )  k11adda53_f4b3_400b_a84d_0d7190faa65d)) (>= k11adda53_f4b3_400b_a84d_0d7190faa65d 0))) (= (* ( Cardinality ( container_ x )  )  0) (* ( Cardinality ( container_ y )  )  1))) (and (= (* ( Cardinality ( container_ y )  )  1) (* ( Cardinality ( container_ x )  )  k4a292b33_ace8_48de_9e0a_d7553e6e9b2f)) (>= k4a292b33_ace8_48de_9e0a_d7553e6e9b2f 0))))))
(assert (! (and (forall ((v Int)) (=> (and ( type_d4a48585_41d8_4d23_8b0f_f208a68e162a_Student v )  ( type_d4a48585_41d8_4d23_8b0f_f208a68e162a_Person v ) ) (>= ( student_year ( obj_1b808d12_6b88_4a03_83a8_83e376249b31 v )  )  1))) (forall ((v Int)) (=> (and ( type_d4a48585_41d8_4d23_8b0f_f208a68e162a_Student v )  ( type_d4a48585_41d8_4d23_8b0f_f208a68e162a_Person v ) ) (<= ( student_year ( obj_1b808d12_6b88_4a03_83a8_83e376249b31 v )  )  6)))):named l0))
(assert (! (and (exists ((s Int)) (and (and ( type_d4a48585_41d8_4d23_8b0f_f208a68e162a_Student s )  ( type_d4a48585_41d8_4d23_8b0f_f208a68e162a_Person s ) ) (= ( student_year ( obj_1b808d12_6b88_4a03_83a8_83e376249b31 s )  )  6))) (exists ((s Int)) (and (and ( type_d4a48585_41d8_4d23_8b0f_f208a68e162a_Student s )  ( type_d4a48585_41d8_4d23_8b0f_f208a68e162a_Person s ) ) (< ( student_year ( obj_1b808d12_6b88_4a03_83a8_83e376249b31 s )  )  6)))):named l1))
(assert (! (forall ((s1 Int)) (=> (and ( type_d4a48585_41d8_4d23_8b0f_f208a68e162a_Student s1 )  ( type_d4a48585_41d8_4d23_8b0f_f208a68e162a_Person s1 ) ) (forall ((m1 Int)) (=> (and ( type_d4a48585_41d8_4d23_8b0f_f208a68e162a_Module m1 )  ( rel_48c6e9f7_be62_4f46_835f_15be9efa9818_study ( obj_1b808d12_6b88_4a03_83a8_83e376249b31 s1 )   ( obj_1b808d12_6b88_4a03_83a8_83e376249b31 m1 )  ) ) (= ( student_year ( obj_1b808d12_6b88_4a03_83a8_83e376249b31 s1 )  )  ( module_year ( obj_1b808d12_6b88_4a03_83a8_83e376249b31 m1 )  ) ))))):named l2))
(assert (! (and (forall ((v Int)) (=> ( type_d4a48585_41d8_4d23_8b0f_f208a68e162a_Module v )  (>= ( module_year ( obj_1b808d12_6b88_4a03_83a8_83e376249b31 v )  )  1))) (forall ((v Int)) (=> ( type_d4a48585_41d8_4d23_8b0f_f208a68e162a_Module v )  (<= ( module_year ( obj_1b808d12_6b88_4a03_83a8_83e376249b31 v )  )  5)))):named l3))
(assert (! (forall ((s Int)) (=> (and ( type_d4a48585_41d8_4d23_8b0f_f208a68e162a_Student s )  ( type_d4a48585_41d8_4d23_8b0f_f208a68e162a_Person s ) ) (exists ((v Int)) (and ( type_d4a48585_41d8_4d23_8b0f_f208a68e162a_Module v )  ( rel_48c6e9f7_be62_4f46_835f_15be9efa9818_study ( obj_1b808d12_6b88_4a03_83a8_83e376249b31 s )   ( obj_1b808d12_6b88_4a03_83a8_83e376249b31 v )  ) )))):named l4))
(assert (! (exists ((o Int)) ( type_d4a48585_41d8_4d23_8b0f_f208a68e162a_Department ( obj_1b808d12_6b88_4a03_83a8_83e376249b31 o )  ) ):named c0))
(assert (! (exists ((o Int)) ( type_d4a48585_41d8_4d23_8b0f_f208a68e162a_Module ( obj_1b808d12_6b88_4a03_83a8_83e376249b31 o )  ) ):named c1))
(assert (! (exists ((o Int)) ( type_d4a48585_41d8_4d23_8b0f_f208a68e162a_Person ( obj_1b808d12_6b88_4a03_83a8_83e376249b31 o )  ) ):named c2))
(assert (! (exists ((o Int)) (and ( type_d4a48585_41d8_4d23_8b0f_f208a68e162a_Student ( obj_1b808d12_6b88_4a03_83a8_83e376249b31 o )  )  ( type_d4a48585_41d8_4d23_8b0f_f208a68e162a_Person ( obj_1b808d12_6b88_4a03_83a8_83e376249b31 o )  ) )):named c3))
(assert (! (exists ((o Int)) ( type_d4a48585_41d8_4d23_8b0f_f208a68e162a_University ( obj_1b808d12_6b88_4a03_83a8_83e376249b31 o )  ) ):named c4))

 ;end of formula 